p cnf 216 1332
-1 -97 0
-1 -98 0
97 -97 0
98 -98 0
-17 -103 0
-17 -104 0
103 -103 0
104 -104 0
-33 -109 0
-33 -110 0
109 -109 0
110 -110 0
-49 -115 0
-49 -116 0
115 -115 0
116 -116 0
-65 -121 0
-65 -122 0
121 -121 0
122 -122 0
-81 -127 0
-81 -128 0
127 -127 0
128 -128 0
-2 -97 0
-2 -98 0
97 -97 0
98 -98 0
-18 -103 0
-18 -104 0
103 -103 0
104 -104 0
-34 -109 0
-34 -110 0
109 -109 0
110 -110 0
-50 -115 0
-50 -116 0
115 -115 0
116 -116 0
-66 -121 0
-66 -122 0
121 -121 0
122 -122 0
-82 -127 0
-82 -128 0
127 -127 0
128 -128 0
3 -133 -97 0
-3 133 -97 0
3 133 -98 0
-3 -133 -98 0
19 -133 -103 0
-19 133 -103 0
19 133 -104 0
-19 -133 -104 0
35 -133 -109 0
-35 133 -109 0
35 133 -110 0
-35 -133 -110 0
51 -133 -115 0
-51 133 -115 0
51 133 -116 0
-51 -133 -116 0
67 -133 -121 0
-67 133 -121 0
67 133 -122 0
-67 -133 -122 0
83 -133 -127 0
-83 133 -127 0
83 133 -128 0
-83 -133 -128 0
4 -97 0
4 -98 0
97 -97 0
98 -98 0
20 -103 0
20 -104 0
103 -103 0
104 -104 0
36 -109 0
36 -110 0
109 -109 0
110 -110 0
52 -115 0
52 -116 0
115 -115 0
116 -116 0
68 -121 0
68 -122 0
121 -121 0
122 -122 0
84 -127 0
84 -128 0
127 -127 0
128 -128 0
5 -97 0
5 -98 0
97 -97 0
98 -98 0
21 -103 0
21 -104 0
103 -103 0
104 -104 0
37 -109 0
37 -110 0
109 -109 0
110 -110 0
53 -115 0
53 -116 0
115 -115 0
116 -116 0
69 -121 0
69 -122 0
121 -121 0
122 -122 0
85 -127 0
85 -128 0
127 -127 0
128 -128 0
6 -97 0
6 -98 0
97 -97 0
98 -98 0
22 -103 0
22 -104 0
103 -103 0
104 -104 0
38 -109 0
38 -110 0
109 -109 0
110 -110 0
54 -115 0
54 -116 0
115 -115 0
116 -116 0
70 -121 0
70 -122 0
121 -121 0
122 -122 0
86 -127 0
86 -128 0
127 -127 0
128 -128 0
7 -97 0
7 -98 0
97 -97 0
98 -98 0
23 -103 0
23 -104 0
103 -103 0
104 -104 0
39 -109 0
39 -110 0
109 -109 0
110 -110 0
55 -115 0
55 -116 0
115 -115 0
116 -116 0
71 -121 0
71 -122 0
121 -121 0
122 -122 0
87 -127 0
87 -128 0
127 -127 0
128 -128 0
8 -97 0
8 -98 0
97 -97 0
98 -98 0
24 -103 0
24 -104 0
103 -103 0
104 -104 0
40 -109 0
40 -110 0
109 -109 0
110 -110 0
56 -115 0
56 -116 0
115 -115 0
116 -116 0
72 -121 0
72 -122 0
121 -121 0
122 -122 0
88 -127 0
88 -128 0
127 -127 0
128 -128 0
9 -97 0
9 -98 0
97 -97 0
98 -98 0
25 -103 0
25 -104 0
103 -103 0
104 -104 0
41 -109 0
41 -110 0
109 -109 0
110 -110 0
57 -115 0
57 -116 0
115 -115 0
116 -116 0
73 -121 0
73 -122 0
121 -121 0
122 -122 0
89 -127 0
89 -128 0
127 -127 0
128 -128 0
10 -97 0
10 -98 0
97 -97 0
98 -98 0
26 -103 0
26 -104 0
103 -103 0
104 -104 0
42 -109 0
42 -110 0
109 -109 0
110 -110 0
58 -115 0
58 -116 0
115 -115 0
116 -116 0
74 -121 0
74 -122 0
121 -121 0
122 -122 0
90 -127 0
90 -128 0
127 -127 0
128 -128 0
11 -97 0
11 -98 0
97 -97 0
98 -98 0
27 -103 0
27 -104 0
103 -103 0
104 -104 0
43 -109 0
43 -110 0
109 -109 0
110 -110 0
59 -115 0
59 -116 0
115 -115 0
116 -116 0
75 -121 0
75 -122 0
121 -121 0
122 -122 0
91 -127 0
91 -128 0
127 -127 0
128 -128 0
12 -97 0
12 -98 0
97 -97 0
98 -98 0
28 -103 0
28 -104 0
103 -103 0
104 -104 0
44 -109 0
44 -110 0
109 -109 0
110 -110 0
60 -115 0
60 -116 0
115 -115 0
116 -116 0
76 -121 0
76 -122 0
121 -121 0
122 -122 0
92 -127 0
92 -128 0
127 -127 0
128 -128 0
-13 -97 0
-13 -98 0
97 -97 0
98 -98 0
-29 -103 0
-29 -104 0
103 -103 0
104 -104 0
-45 -109 0
-45 -110 0
109 -109 0
110 -110 0
-61 -115 0
-61 -116 0
115 -115 0
116 -116 0
-77 -121 0
-77 -122 0
121 -121 0
122 -122 0
-93 -127 0
-93 -128 0
127 -127 0
128 -128 0
-14 -97 0
-14 -98 0
97 -97 0
98 -98 0
-30 -103 0
-30 -104 0
103 -103 0
104 -104 0
-46 -109 0
-46 -110 0
109 -109 0
110 -110 0
-62 -115 0
-62 -116 0
115 -115 0
116 -116 0
-78 -121 0
-78 -122 0
121 -121 0
122 -122 0
-94 -127 0
-94 -128 0
127 -127 0
128 -128 0
15 -97 0
15 -98 0
97 -97 0
98 -98 0
31 -103 0
31 -104 0
103 -103 0
104 -104 0
47 -109 0
47 -110 0
109 -109 0
110 -110 0
63 -115 0
63 -116 0
115 -115 0
116 -116 0
79 -121 0
79 -122 0
121 -121 0
122 -122 0
95 -127 0
95 -128 0
127 -127 0
128 -128 0
-16 -97 0
-16 -98 0
97 -97 0
98 -98 0
-32 -103 0
-32 -104 0
103 -103 0
104 -104 0
-48 -109 0
-48 -110 0
109 -109 0
110 -110 0
-64 -115 0
-64 -116 0
115 -115 0
116 -116 0
-80 -121 0
-80 -122 0
121 -121 0
122 -122 0
-96 -127 0
-96 -128 0
127 -127 0
128 -128 0
-181 97 0
181 -97 0
-182 98 0
181 -98 0
-181 -97 0
-182 -98 0
-187 97 181 0
187 -97 0
187 -181 0
-188 98 182 0
188 -98 0
188 -182 0
-187 -103 0
-188 -104 0
-193 103 187 0
193 -103 0
193 -187 0
-194 104 188 0
194 -104 0
194 -188 0
-193 -109 0
-194 -110 0
-199 109 193 0
199 -109 0
199 -193 0
-200 110 194 0
200 -110 0
200 -194 0
-199 -115 0
-200 -116 0
-205 115 199 0
205 -115 0
205 -199 0
-206 116 200 0
206 -116 0
206 -200 0
-205 -121 0
-206 -122 0
-211 121 205 0
211 -121 0
211 -205 0
-212 122 206 0
212 -122 0
212 -206 0
-211 -127 0
-212 -128 0
211 0
212 0
-1 -99 0
-1 -100 0
99 -99 0
100 -100 0
-17 -105 0
-17 -106 0
105 -105 0
106 -106 0
-33 -111 0
-33 -112 0
111 -111 0
112 -112 0
-49 -117 0
-49 -118 0
117 -117 0
118 -118 0
-65 -123 0
-65 -124 0
123 -123 0
124 -124 0
-81 -129 0
-81 -130 0
129 -129 0
130 -130 0
-2 -99 0
-2 -100 0
99 -99 0
100 -100 0
-18 -105 0
-18 -106 0
105 -105 0
106 -106 0
-34 -111 0
-34 -112 0
111 -111 0
112 -112 0
-50 -117 0
-50 -118 0
117 -117 0
118 -118 0
-66 -123 0
-66 -124 0
123 -123 0
124 -124 0
-82 -129 0
-82 -130 0
129 -129 0
130 -130 0
3 -134 -99 0
-3 134 -99 0
3 134 -100 0
-3 -134 -100 0
19 -134 -105 0
-19 134 -105 0
19 134 -106 0
-19 -134 -106 0
35 -134 -111 0
-35 134 -111 0
35 134 -112 0
-35 -134 -112 0
51 -134 -117 0
-51 134 -117 0
51 134 -118 0
-51 -134 -118 0
67 -134 -123 0
-67 134 -123 0
67 134 -124 0
-67 -134 -124 0
83 -134 -129 0
-83 134 -129 0
83 134 -130 0
-83 -134 -130 0
4 -99 0
4 -100 0
99 -99 0
100 -100 0
20 -105 0
20 -106 0
105 -105 0
106 -106 0
36 -111 0
36 -112 0
111 -111 0
112 -112 0
52 -117 0
52 -118 0
117 -117 0
118 -118 0
68 -123 0
68 -124 0
123 -123 0
124 -124 0
84 -129 0
84 -130 0
129 -129 0
130 -130 0
5 -99 0
5 -100 0
99 -99 0
100 -100 0
21 -105 0
21 -106 0
105 -105 0
106 -106 0
37 -111 0
37 -112 0
111 -111 0
112 -112 0
53 -117 0
53 -118 0
117 -117 0
118 -118 0
69 -123 0
69 -124 0
123 -123 0
124 -124 0
85 -129 0
85 -130 0
129 -129 0
130 -130 0
6 -135 -99 0
-6 135 -99 0
6 135 -100 0
-6 -135 -100 0
22 -135 -105 0
-22 135 -105 0
22 135 -106 0
-22 -135 -106 0
38 -135 -111 0
-38 135 -111 0
38 135 -112 0
-38 -135 -112 0
54 -135 -117 0
-54 135 -117 0
54 135 -118 0
-54 -135 -118 0
70 -135 -123 0
-70 135 -123 0
70 135 -124 0
-70 -135 -124 0
86 -135 -129 0
-86 135 -129 0
86 135 -130 0
-86 -135 -130 0
7 -99 0
7 -100 0
99 -99 0
100 -100 0
23 -105 0
23 -106 0
105 -105 0
106 -106 0
39 -111 0
39 -112 0
111 -111 0
112 -112 0
55 -117 0
55 -118 0
117 -117 0
118 -118 0
71 -123 0
71 -124 0
123 -123 0
124 -124 0
87 -129 0
87 -130 0
129 -129 0
130 -130 0
8 -99 0
8 -100 0
99 -99 0
100 -100 0
24 -105 0
24 -106 0
105 -105 0
106 -106 0
40 -111 0
40 -112 0
111 -111 0
112 -112 0
56 -117 0
56 -118 0
117 -117 0
118 -118 0
72 -123 0
72 -124 0
123 -123 0
124 -124 0
88 -129 0
88 -130 0
129 -129 0
130 -130 0
9 -136 -99 0
-9 136 -99 0
9 136 -100 0
-9 -136 -100 0
25 -136 -105 0
-25 136 -105 0
25 136 -106 0
-25 -136 -106 0
41 -136 -111 0
-41 136 -111 0
41 136 -112 0
-41 -136 -112 0
57 -136 -117 0
-57 136 -117 0
57 136 -118 0
-57 -136 -118 0
73 -136 -123 0
-73 136 -123 0
73 136 -124 0
-73 -136 -124 0
89 -136 -129 0
-89 136 -129 0
89 136 -130 0
-89 -136 -130 0
10 -99 0
10 -100 0
99 -99 0
100 -100 0
26 -105 0
26 -106 0
105 -105 0
106 -106 0
42 -111 0
42 -112 0
111 -111 0
112 -112 0
58 -117 0
58 -118 0
117 -117 0
118 -118 0
74 -123 0
74 -124 0
123 -123 0
124 -124 0
90 -129 0
90 -130 0
129 -129 0
130 -130 0
11 -99 0
11 -100 0
99 -99 0
100 -100 0
27 -105 0
27 -106 0
105 -105 0
106 -106 0
43 -111 0
43 -112 0
111 -111 0
112 -112 0
59 -117 0
59 -118 0
117 -117 0
118 -118 0
75 -123 0
75 -124 0
123 -123 0
124 -124 0
91 -129 0
91 -130 0
129 -129 0
130 -130 0
12 -99 0
12 -100 0
99 -99 0
100 -100 0
28 -105 0
28 -106 0
105 -105 0
106 -106 0
44 -111 0
44 -112 0
111 -111 0
112 -112 0
60 -117 0
60 -118 0
117 -117 0
118 -118 0
76 -123 0
76 -124 0
123 -123 0
124 -124 0
92 -129 0
92 -130 0
129 -129 0
130 -130 0
13 -137 -99 0
-13 137 -99 0
13 137 -100 0
-13 -137 -100 0
29 -137 -105 0
-29 137 -105 0
29 137 -106 0
-29 -137 -106 0
45 -137 -111 0
-45 137 -111 0
45 137 -112 0
-45 -137 -112 0
61 -137 -117 0
-61 137 -117 0
61 137 -118 0
-61 -137 -118 0
77 -137 -123 0
-77 137 -123 0
77 137 -124 0
-77 -137 -124 0
93 -137 -129 0
-93 137 -129 0
93 137 -130 0
-93 -137 -130 0
14 -138 -99 0
-14 138 -99 0
14 138 -100 0
-14 -138 -100 0
30 -138 -105 0
-30 138 -105 0
30 138 -106 0
-30 -138 -106 0
46 -138 -111 0
-46 138 -111 0
46 138 -112 0
-46 -138 -112 0
62 -138 -117 0
-62 138 -117 0
62 138 -118 0
-62 -138 -118 0
78 -138 -123 0
-78 138 -123 0
78 138 -124 0
-78 -138 -124 0
94 -138 -129 0
-94 138 -129 0
94 138 -130 0
-94 -138 -130 0
15 -99 0
15 -100 0
99 -99 0
100 -100 0
31 -105 0
31 -106 0
105 -105 0
106 -106 0
47 -111 0
47 -112 0
111 -111 0
112 -112 0
63 -117 0
63 -118 0
117 -117 0
118 -118 0
79 -123 0
79 -124 0
123 -123 0
124 -124 0
95 -129 0
95 -130 0
129 -129 0
130 -130 0
16 -139 -99 0
-16 139 -99 0
16 139 -100 0
-16 -139 -100 0
32 -139 -105 0
-32 139 -105 0
32 139 -106 0
-32 -139 -106 0
48 -139 -111 0
-48 139 -111 0
48 139 -112 0
-48 -139 -112 0
64 -139 -117 0
-64 139 -117 0
64 139 -118 0
-64 -139 -118 0
80 -139 -123 0
-80 139 -123 0
80 139 -124 0
-80 -139 -124 0
96 -139 -129 0
-96 139 -129 0
96 139 -130 0
-96 -139 -130 0
-183 99 0
183 -99 0
-184 100 0
183 -100 0
-183 -99 0
-184 -100 0
-189 99 183 0
189 -99 0
189 -183 0
-190 100 184 0
190 -100 0
190 -184 0
-189 -105 0
-190 -106 0
-195 105 189 0
195 -105 0
195 -189 0
-196 106 190 0
196 -106 0
196 -190 0
-195 -111 0
-196 -112 0
-201 111 195 0
201 -111 0
201 -195 0
-202 112 196 0
202 -112 0
202 -196 0
-201 -117 0
-202 -118 0
-207 117 201 0
207 -117 0
207 -201 0
-208 118 202 0
208 -118 0
208 -202 0
-207 -123 0
-208 -124 0
-213 123 207 0
213 -123 0
213 -207 0
-214 124 208 0
214 -124 0
214 -208 0
-213 -129 0
-214 -130 0
213 0
214 0
1 -140 -101 0
-1 140 -101 0
1 140 -102 0
-1 -140 -102 0
17 -140 -107 0
-17 140 -107 0
17 140 -108 0
-17 -140 -108 0
33 -140 -113 0
-33 140 -113 0
33 140 -114 0
-33 -140 -114 0
49 -140 -119 0
-49 140 -119 0
49 140 -120 0
-49 -140 -120 0
65 -140 -125 0
-65 140 -125 0
65 140 -126 0
-65 -140 -126 0
81 -140 -131 0
-81 140 -131 0
81 140 -132 0
-81 -140 -132 0
2 -141 -101 0
-2 141 -101 0
2 141 -102 0
-2 -141 -102 0
18 -141 -107 0
-18 141 -107 0
18 141 -108 0
-18 -141 -108 0
34 -141 -113 0
-34 141 -113 0
34 141 -114 0
-34 -141 -114 0
50 -141 -119 0
-50 141 -119 0
50 141 -120 0
-50 -141 -120 0
66 -141 -125 0
-66 141 -125 0
66 141 -126 0
-66 -141 -126 0
82 -141 -131 0
-82 141 -131 0
82 141 -132 0
-82 -141 -132 0
-3 -101 0
-3 -102 0
101 -101 0
102 -102 0
-19 -107 0
-19 -108 0
107 -107 0
108 -108 0
-35 -113 0
-35 -114 0
113 -113 0
114 -114 0
-51 -119 0
-51 -120 0
119 -119 0
120 -120 0
-67 -125 0
-67 -126 0
125 -125 0
126 -126 0
-83 -131 0
-83 -132 0
131 -131 0
132 -132 0
4 -142 -101 0
-4 142 -101 0
4 142 -102 0
-4 -142 -102 0
20 -142 -107 0
-20 142 -107 0
20 142 -108 0
-20 -142 -108 0
36 -142 -113 0
-36 142 -113 0
36 142 -114 0
-36 -142 -114 0
52 -142 -119 0
-52 142 -119 0
52 142 -120 0
-52 -142 -120 0
68 -142 -125 0
-68 142 -125 0
68 142 -126 0
-68 -142 -126 0
84 -142 -131 0
-84 142 -131 0
84 142 -132 0
-84 -142 -132 0
5 -101 0
5 -102 0
101 -101 0
102 -102 0
21 -107 0
21 -108 0
107 -107 0
108 -108 0
37 -113 0
37 -114 0
113 -113 0
114 -114 0
53 -119 0
53 -120 0
119 -119 0
120 -120 0
69 -125 0
69 -126 0
125 -125 0
126 -126 0
85 -131 0
85 -132 0
131 -131 0
132 -132 0
6 -101 0
6 -102 0
101 -101 0
102 -102 0
22 -107 0
22 -108 0
107 -107 0
108 -108 0
38 -113 0
38 -114 0
113 -113 0
114 -114 0
54 -119 0
54 -120 0
119 -119 0
120 -120 0
70 -125 0
70 -126 0
125 -125 0
126 -126 0
86 -131 0
86 -132 0
131 -131 0
132 -132 0
7 -101 0
7 -102 0
101 -101 0
102 -102 0
23 -107 0
23 -108 0
107 -107 0
108 -108 0
39 -113 0
39 -114 0
113 -113 0
114 -114 0
55 -119 0
55 -120 0
119 -119 0
120 -120 0
71 -125 0
71 -126 0
125 -125 0
126 -126 0
87 -131 0
87 -132 0
131 -131 0
132 -132 0
8 -101 0
8 -102 0
101 -101 0
102 -102 0
24 -107 0
24 -108 0
107 -107 0
108 -108 0
40 -113 0
40 -114 0
113 -113 0
114 -114 0
56 -119 0
56 -120 0
119 -119 0
120 -120 0
72 -125 0
72 -126 0
125 -125 0
126 -126 0
88 -131 0
88 -132 0
131 -131 0
132 -132 0
9 -101 0
9 -102 0
101 -101 0
102 -102 0
25 -107 0
25 -108 0
107 -107 0
108 -108 0
41 -113 0
41 -114 0
113 -113 0
114 -114 0
57 -119 0
57 -120 0
119 -119 0
120 -120 0
73 -125 0
73 -126 0
125 -125 0
126 -126 0
89 -131 0
89 -132 0
131 -131 0
132 -132 0
10 -101 0
10 -102 0
101 -101 0
102 -102 0
26 -107 0
26 -108 0
107 -107 0
108 -108 0
42 -113 0
42 -114 0
113 -113 0
114 -114 0
58 -119 0
58 -120 0
119 -119 0
120 -120 0
74 -125 0
74 -126 0
125 -125 0
126 -126 0
90 -131 0
90 -132 0
131 -131 0
132 -132 0
11 -101 0
11 -102 0
101 -101 0
102 -102 0
27 -107 0
27 -108 0
107 -107 0
108 -108 0
43 -113 0
43 -114 0
113 -113 0
114 -114 0
59 -119 0
59 -120 0
119 -119 0
120 -120 0
75 -125 0
75 -126 0
125 -125 0
126 -126 0
91 -131 0
91 -132 0
131 -131 0
132 -132 0
12 -101 0
12 -102 0
101 -101 0
102 -102 0
28 -107 0
28 -108 0
107 -107 0
108 -108 0
44 -113 0
44 -114 0
113 -113 0
114 -114 0
60 -119 0
60 -120 0
119 -119 0
120 -120 0
76 -125 0
76 -126 0
125 -125 0
126 -126 0
92 -131 0
92 -132 0
131 -131 0
132 -132 0
13 -143 -101 0
-13 143 -101 0
13 143 -102 0
-13 -143 -102 0
29 -143 -107 0
-29 143 -107 0
29 143 -108 0
-29 -143 -108 0
45 -143 -113 0
-45 143 -113 0
45 143 -114 0
-45 -143 -114 0
61 -143 -119 0
-61 143 -119 0
61 143 -120 0
-61 -143 -120 0
77 -143 -125 0
-77 143 -125 0
77 143 -126 0
-77 -143 -126 0
93 -143 -131 0
-93 143 -131 0
93 143 -132 0
-93 -143 -132 0
14 -144 -101 0
-14 144 -101 0
14 144 -102 0
-14 -144 -102 0
30 -144 -107 0
-30 144 -107 0
30 144 -108 0
-30 -144 -108 0
46 -144 -113 0
-46 144 -113 0
46 144 -114 0
-46 -144 -114 0
62 -144 -119 0
-62 144 -119 0
62 144 -120 0
-62 -144 -120 0
78 -144 -125 0
-78 144 -125 0
78 144 -126 0
-78 -144 -126 0
94 -144 -131 0
-94 144 -131 0
94 144 -132 0
-94 -144 -132 0
15 -145 -101 0
-15 145 -101 0
15 145 -102 0
-15 -145 -102 0
31 -145 -107 0
-31 145 -107 0
31 145 -108 0
-31 -145 -108 0
47 -145 -113 0
-47 145 -113 0
47 145 -114 0
-47 -145 -114 0
63 -145 -119 0
-63 145 -119 0
63 145 -120 0
-63 -145 -120 0
79 -145 -125 0
-79 145 -125 0
79 145 -126 0
-79 -145 -126 0
95 -145 -131 0
-95 145 -131 0
95 145 -132 0
-95 -145 -132 0
16 -146 -101 0
-16 146 -101 0
16 146 -102 0
-16 -146 -102 0
32 -146 -107 0
-32 146 -107 0
32 146 -108 0
-32 -146 -108 0
48 -146 -113 0
-48 146 -113 0
48 146 -114 0
-48 -146 -114 0
64 -146 -119 0
-64 146 -119 0
64 146 -120 0
-64 -146 -120 0
80 -146 -125 0
-80 146 -125 0
80 146 -126 0
-80 -146 -126 0
96 -146 -131 0
-96 146 -131 0
96 146 -132 0
-96 -146 -132 0
-185 101 0
185 -101 0
-186 102 0
185 -102 0
-185 -101 0
-186 -102 0
-191 101 185 0
191 -101 0
191 -185 0
-192 102 186 0
192 -102 0
192 -186 0
-191 -107 0
-192 -108 0
-197 107 191 0
197 -107 0
197 -191 0
-198 108 192 0
198 -108 0
198 -192 0
-197 -113 0
-198 -114 0
-203 113 197 0
203 -113 0
203 -197 0
-204 114 198 0
204 -114 0
204 -198 0
-203 -119 0
-204 -120 0
-209 119 203 0
209 -119 0
209 -203 0
-210 120 204 0
210 -120 0
210 -204 0
-209 -125 0
-210 -126 0
-215 125 209 0
215 -125 0
215 -209 0
-216 126 210 0
216 -126 0
216 -210 0
-215 -131 0
-216 -132 0
215 0
216 0
-97 104 110 116 122 128 0
-98 0
-103 110 116 122 128 0
-104 97 0
-109 116 122 128 0
-110 97 103 0
-115 122 128 0
-116 97 103 109 0
-121 128 0
-122 97 103 109 115 0
-127 0
-128 97 103 109 115 121 0
-99 106 112 118 124 130 0
-100 0
-105 112 118 124 130 0
-106 99 0
-111 118 124 130 0
-112 99 105 0
-117 124 130 0
-118 99 105 111 0
-123 130 0
-124 99 105 111 117 0
-129 0
-130 99 105 111 117 123 0
-101 108 114 120 126 132 0
-102 0
-107 114 120 126 132 0
-108 101 0
-113 120 126 132 0
-114 101 107 0
-119 126 132 0
-120 101 107 113 0
-125 132 0
-126 101 107 113 119 0
-131 0
-132 101 107 113 119 125 0
